p cnf 120 1630
1 2 3 0
4 5 6 0
7 8 9 0
10 11 12 0
13 14 15 0
16 17 18 0
19 20 21 0
22 23 24 0
25 26 27 0
28 29 30 0
31 32 33 0
34 35 36 0
37 38 39 0
40 41 42 0
43 44 45 0
46 47 48 0
49 50 51 0
52 53 54 0
55 56 57 0
58 59 60 0
61 62 63 0
64 65 66 0
67 68 69 0
70 71 72 0
73 74 75 0
76 77 78 0
79 80 81 0
82 83 84 0
85 86 87 0
88 89 90 0
91 92 93 0
94 95 96 0
97 98 99 0
100 101 102 0
103 104 105 0
106 107 108 0
109 110 111 0
112 113 114 0
115 116 117 0
118 119 120 0
-1 -2 0
-1 -3 0
-2 -3 0
-4 -5 0
-4 -6 0
-5 -6 0
-7 -8 0
-7 -9 0
-8 -9 0
-10 -11 0
-10 -12 0
-11 -12 0
-13 -14 0
-13 -15 0
-14 -15 0
-16 -17 0
-16 -18 0
-17 -18 0
-19 -20 0
-19 -21 0
-20 -21 0
-22 -23 0
-22 -24 0
-23 -24 0
-25 -26 0
-25 -27 0
-26 -27 0
-28 -29 0
-28 -30 0
-29 -30 0
-31 -32 0
-31 -33 0
-32 -33 0
-34 -35 0
-34 -36 0
-35 -36 0
-37 -38 0
-37 -39 0
-38 -39 0
-40 -41 0
-40 -42 0
-41 -42 0
-43 -44 0
-43 -45 0
-44 -45 0
-46 -47 0
-46 -48 0
-47 -48 0
-49 -50 0
-49 -51 0
-50 -51 0
-52 -53 0
-52 -54 0
-53 -54 0
-55 -56 0
-55 -57 0
-56 -57 0
-58 -59 0
-58 -60 0
-59 -60 0
-61 -62 0
-61 -63 0
-62 -63 0
-64 -65 0
-64 -66 0
-65 -66 0
-67 -68 0
-67 -69 0
-68 -69 0
-70 -71 0
-70 -72 0
-71 -72 0
-73 -74 0
-73 -75 0
-74 -75 0
-76 -77 0
-76 -78 0
-77 -78 0
-79 -80 0
-79 -81 0
-80 -81 0
-82 -83 0
-82 -84 0
-83 -84 0
-85 -86 0
-85 -87 0
-86 -87 0
-88 -89 0
-88 -90 0
-89 -90 0
-91 -92 0
-91 -93 0
-92 -93 0
-94 -95 0
-94 -96 0
-95 -96 0
-97 -98 0
-97 -99 0
-98 -99 0
-100 -101 0
-100 -102 0
-101 -102 0
-103 -104 0
-103 -105 0
-104 -105 0
-106 -107 0
-106 -108 0
-107 -108 0
-109 -110 0
-109 -111 0
-110 -111 0
-112 -113 0
-112 -114 0
-113 -114 0
-115 -116 0
-115 -117 0
-116 -117 0
-118 -119 0
-118 -120 0
-119 -120 0
-1 -7 0
-1 -16 0
-1 -19 0
-1 -31 0
-1 -34 0
-1 -40 0
-1 -52 0
-1 -58 0
-1 -67 0
-1 -76 0
-1 -91 0
-1 -100 0
-1 -118 0
-4 -19 0
-4 -25 0
-4 -28 0
-4 -31 0
-4 -37 0
-4 -43 0
-4 -64 0
-4 -70 0
-4 -73 0
-4 -82 0
-4 -88 0
-4 -112 0
-4 -115 0
-7 -1 0
-7 -22 0
-7 -34 0
-7 -43 0
-7 -46 0
-7 -52 0
-7 -55 0
-7 -70 0
-7 -79 0
-7 -88 0
-7 -97 0
-7 -109 0
-7 -112 0
-10 -19 0
-10 -31 0
-10 -34 0
-10 -37 0
-10 -40 0
-10 -43 0
-10 -49 0
-10 -52 0
-10 -61 0
-10 -79 0
-10 -88 0
-10 -103 0
-10 -109 0
-10 -112 0
-13 -16 0
-13 -25 0
-13 -34 0
-13 -37 0
-13 -43 0
-13 -49 0
-13 -61 0
-13 -67 0
-13 -91 0
-13 -106 0
-16 -1 0
-16 -13 0
-16 -19 0
-16 -34 0
-16 -40 0
-16 -49 0
-16 -61 0
-16 -76 0
-16 -94 0
-16 -97 0
-16 -100 0
-16 -103 0
-16 -106 0
-16 -115 0
-16 -118 0
-19 -1 0
-19 -4 0
-19 -10 0
-19 -16 0
-19 -25 0
-19 -43 0
-19 -52 0
-19 -61 0
-19 -70 0
-19 -79 0
-19 -85 0
-19 -97 0
-19 -106 0
-19 -112 0
-22 -7 0
-22 -25 0
-22 -34 0
-22 -37 0
-22 -46 0
-22 -52 0
-22 -58 0
-22 -64 0
-22 -76 0
-22 -88 0
-22 -94 0
-22 -97 0
-22 -106 0
-25 -4 0
-25 -13 0
-25 -19 0
-25 -22 0
-25 -28 0
-25 -37 0
-25 -61 0
-25 -82 0
-25 -85 0
-25 -88 0
-25 -97 0
-25 -106 0
-28 -4 0
-28 -25 0
-28 -31 0
-28 -34 0
-28 -40 0
-28 -49 0
-28 -76 0
-28 -103 0
-28 -106 0
-28 -118 0
-31 -1 0
-31 -4 0
-31 -10 0
-31 -28 0
-31 -43 0
-31 -46 0
-31 -70 0
-31 -79 0
-31 -88 0
-31 -97 0
-31 -103 0
-34 -1 0
-34 -7 0
-34 -10 0
-34 -13 0
-34 -16 0
-34 -22 0
-34 -28 0
-34 -40 0
-34 -64 0
-34 -67 0
-34 -91 0
-34 -106 0
-34 -112 0
-37 -4 0
-37 -10 0
-37 -13 0
-37 -22 0
-37 -25 0
-37 -52 0
-37 -58 0
-37 -82 0
-37 -85 0
-37 -94 0
-37 -100 0
-37 -118 0
-40 -1 0
-40 -10 0
-40 -16 0
-40 -28 0
-40 -34 0
-40 -43 0
-40 -58 0
-40 -67 0
-40 -79 0
-40 -85 0
-40 -103 0
-40 -109 0
-40 -115 0
-43 -4 0
-43 -7 0
-43 -10 0
-43 -13 0
-43 -19 0
-43 -31 0
-43 -40 0
-43 -61 0
-43 -85 0
-43 -91 0
-43 -106 0
-43 -112 0
-43 -118 0
-46 -7 0
-46 -22 0
-46 -31 0
-46 -49 0
-46 -52 0
-46 -58 0
-46 -85 0
-46 -91 0
-46 -97 0
-46 -100 0
-46 -103 0
-46 -109 0
-46 -118 0
-49 -10 0
-49 -13 0
-49 -16 0
-49 -28 0
-49 -46 0
-49 -52 0
-49 -55 0
-49 -58 0
-49 -73 0
-49 -79 0
-49 -88 0
-52 -1 0
-52 -7 0
-52 -10 0
-52 -19 0
-52 -22 0
-52 -37 0
-52 -46 0
-52 -49 0
-52 -64 0
-52 -67 0
-52 -82 0
-52 -85 0
-52 -97 0
-52 -103 0
-55 -7 0
-55 -49 0
-55 -61 0
-55 -64 0
-55 -67 0
-55 -76 0
-55 -94 0
-55 -97 0
-55 -103 0
-55 -106 0
-55 -118 0
-58 -1 0
-58 -22 0
-58 -37 0
-58 -40 0
-58 -46 0
-58 -49 0
-58 -67 0
-58 -70 0
-58 -82 0
-58 -85 0
-58 -91 0
-58 -106 0
-61 -10 0
-61 -13 0
-61 -16 0
-61 -19 0
-61 -25 0
-61 -43 0
-61 -55 0
-61 -67 0
-61 -70 0
-61 -73 0
-61 -91 0
-61 -94 0
-61 -100 0
-64 -4 0
-64 -22 0
-64 -34 0
-64 -52 0
-64 -55 0
-64 -70 0
-64 -100 0
-64 -112 0
-64 -115 0
-64 -118 0
-67 -1 0
-67 -13 0
-67 -34 0
-67 -40 0
-67 -52 0
-67 -55 0
-67 -58 0
-67 -61 0
-67 -94 0
-67 -112 0
-70 -4 0
-70 -7 0
-70 -19 0
-70 -31 0
-70 -58 0
-70 -61 0
-70 -64 0
-70 -76 0
-70 -91 0
-70 -112 0
-70 -115 0
-70 -118 0
-73 -4 0
-73 -49 0
-73 -61 0
-73 -82 0
-73 -85 0
-73 -88 0
-73 -97 0
-73 -100 0
-73 -103 0
-73 -109 0
-73 -112 0
-73 -118 0
-76 -1 0
-76 -16 0
-76 -22 0
-76 -28 0
-76 -55 0
-76 -70 0
-76 -79 0
-76 -82 0
-76 -88 0
-76 -91 0
-76 -94 0
-76 -106 0
-76 -112 0
-76 -115 0
-79 -7 0
-79 -10 0
-79 -19 0
-79 -31 0
-79 -40 0
-79 -49 0
-79 -76 0
-79 -82 0
-79 -94 0
-79 -97 0
-79 -100 0
-79 -103 0
-82 -4 0
-82 -25 0
-82 -37 0
-82 -52 0
-82 -58 0
-82 -73 0
-82 -76 0
-82 -79 0
-82 -88 0
-82 -97 0
-82 -100 0
-82 -103 0
-82 -109 0
-85 -19 0
-85 -25 0
-85 -37 0
-85 -40 0
-85 -43 0
-85 -46 0
-85 -52 0
-85 -58 0
-85 -73 0
-85 -88 0
-85 -91 0
-85 -97 0
-85 -103 0
-88 -4 0
-88 -7 0
-88 -10 0
-88 -22 0
-88 -25 0
-88 -31 0
-88 -49 0
-88 -73 0
-88 -76 0
-88 -82 0
-88 -85 0
-91 -1 0
-91 -13 0
-91 -34 0
-91 -43 0
-91 -46 0
-91 -58 0
-91 -61 0
-91 -70 0
-91 -76 0
-91 -85 0
-91 -97 0
-91 -106 0
-91 -112 0
-91 -115 0
-94 -16 0
-94 -22 0
-94 -37 0
-94 -55 0
-94 -61 0
-94 -67 0
-94 -76 0
-94 -79 0
-94 -100 0
-94 -112 0
-94 -115 0
-94 -118 0
-97 -7 0
-97 -16 0
-97 -19 0
-97 -22 0
-97 -25 0
-97 -31 0
-97 -46 0
-97 -52 0
-97 -55 0
-97 -73 0
-97 -79 0
-97 -82 0
-97 -85 0
-97 -91 0
-97 -103 0
-100 -1 0
-100 -16 0
-100 -37 0
-100 -46 0
-100 -61 0
-100 -64 0
-100 -73 0
-100 -79 0
-100 -82 0
-100 -94 0
-100 -115 0
-103 -10 0
-103 -16 0
-103 -28 0
-103 -31 0
-103 -40 0
-103 -46 0
-103 -52 0
-103 -55 0
-103 -73 0
-103 -79 0
-103 -82 0
-103 -85 0
-103 -97 0
-106 -13 0
-106 -16 0
-106 -19 0
-106 -22 0
-106 -25 0
-106 -28 0
-106 -34 0
-106 -43 0
-106 -55 0
-106 -58 0
-106 -76 0
-106 -91 0
-106 -109 0
-109 -7 0
-109 -10 0
-109 -40 0
-109 -46 0
-109 -73 0
-109 -82 0
-109 -106 0
-109 -115 0
-112 -4 0
-112 -7 0
-112 -10 0
-112 -19 0
-112 -34 0
-112 -43 0
-112 -64 0
-112 -67 0
-112 -70 0
-112 -73 0
-112 -76 0
-112 -91 0
-112 -94 0
-115 -4 0
-115 -16 0
-115 -40 0
-115 -64 0
-115 -70 0
-115 -76 0
-115 -91 0
-115 -94 0
-115 -100 0
-115 -109 0
-118 -1 0
-118 -16 0
-118 -28 0
-118 -37 0
-118 -43 0
-118 -46 0
-118 -55 0
-118 -64 0
-118 -70 0
-118 -73 0
-118 -94 0
-2 -8 0
-2 -17 0
-2 -20 0
-2 -32 0
-2 -35 0
-2 -41 0
-2 -53 0
-2 -59 0
-2 -68 0
-2 -77 0
-2 -92 0
-2 -101 0
-2 -119 0
-5 -20 0
-5 -26 0
-5 -29 0
-5 -32 0
-5 -38 0
-5 -44 0
-5 -65 0
-5 -71 0
-5 -74 0
-5 -83 0
-5 -89 0
-5 -113 0
-5 -116 0
-8 -2 0
-8 -23 0
-8 -35 0
-8 -44 0
-8 -47 0
-8 -53 0
-8 -56 0
-8 -71 0
-8 -80 0
-8 -89 0
-8 -98 0
-8 -110 0
-8 -113 0
-11 -20 0
-11 -32 0
-11 -35 0
-11 -38 0
-11 -41 0
-11 -44 0
-11 -50 0
-11 -53 0
-11 -62 0
-11 -80 0
-11 -89 0
-11 -104 0
-11 -110 0
-11 -113 0
-14 -17 0
-14 -26 0
-14 -35 0
-14 -38 0
-14 -44 0
-14 -50 0
-14 -62 0
-14 -68 0
-14 -92 0
-14 -107 0
-17 -2 0
-17 -14 0
-17 -20 0
-17 -35 0
-17 -41 0
-17 -50 0
-17 -62 0
-17 -77 0
-17 -95 0
-17 -98 0
-17 -101 0
-17 -104 0
-17 -107 0
-17 -116 0
-17 -119 0
-20 -2 0
-20 -5 0
-20 -11 0
-20 -17 0
-20 -26 0
-20 -44 0
-20 -53 0
-20 -62 0
-20 -71 0
-20 -80 0
-20 -86 0
-20 -98 0
-20 -107 0
-20 -113 0
-23 -8 0
-23 -26 0
-23 -35 0
-23 -38 0
-23 -47 0
-23 -53 0
-23 -59 0
-23 -65 0
-23 -77 0
-23 -89 0
-23 -95 0
-23 -98 0
-23 -107 0
-26 -5 0
-26 -14 0
-26 -20 0
-26 -23 0
-26 -29 0
-26 -38 0
-26 -62 0
-26 -83 0
-26 -86 0
-26 -89 0
-26 -98 0
-26 -107 0
-29 -5 0
-29 -26 0
-29 -32 0
-29 -35 0
-29 -41 0
-29 -50 0
-29 -77 0
-29 -104 0
-29 -107 0
-29 -119 0
-32 -2 0
-32 -5 0
-32 -11 0
-32 -29 0
-32 -44 0
-32 -47 0
-32 -71 0
-32 -80 0
-32 -89 0
-32 -98 0
-32 -104 0
-35 -2 0
-35 -8 0
-35 -11 0
-35 -14 0
-35 -17 0
-35 -23 0
-35 -29 0
-35 -41 0
-35 -65 0
-35 -68 0
-35 -92 0
-35 -107 0
-35 -113 0
-38 -5 0
-38 -11 0
-38 -14 0
-38 -23 0
-38 -26 0
-38 -53 0
-38 -59 0
-38 -83 0
-38 -86 0
-38 -95 0
-38 -101 0
-38 -119 0
-41 -2 0
-41 -11 0
-41 -17 0
-41 -29 0
-41 -35 0
-41 -44 0
-41 -59 0
-41 -68 0
-41 -80 0
-41 -86 0
-41 -104 0
-41 -110 0
-41 -116 0
-44 -5 0
-44 -8 0
-44 -11 0
-44 -14 0
-44 -20 0
-44 -32 0
-44 -41 0
-44 -62 0
-44 -86 0
-44 -92 0
-44 -107 0
-44 -113 0
-44 -119 0
-47 -8 0
-47 -23 0
-47 -32 0
-47 -50 0
-47 -53 0
-47 -59 0
-47 -86 0
-47 -92 0
-47 -98 0
-47 -101 0
-47 -104 0
-47 -110 0
-47 -119 0
-50 -11 0
-50 -14 0
-50 -17 0
-50 -29 0
-50 -47 0
-50 -53 0
-50 -56 0
-50 -59 0
-50 -74 0
-50 -80 0
-50 -89 0
-53 -2 0
-53 -8 0
-53 -11 0
-53 -20 0
-53 -23 0
-53 -38 0
-53 -47 0
-53 -50 0
-53 -65 0
-53 -68 0
-53 -83 0
-53 -86 0
-53 -98 0
-53 -104 0
-56 -8 0
-56 -50 0
-56 -62 0
-56 -65 0
-56 -68 0
-56 -77 0
-56 -95 0
-56 -98 0
-56 -104 0
-56 -107 0
-56 -119 0
-59 -2 0
-59 -23 0
-59 -38 0
-59 -41 0
-59 -47 0
-59 -50 0
-59 -68 0
-59 -71 0
-59 -83 0
-59 -86 0
-59 -92 0
-59 -107 0
-62 -11 0
-62 -14 0
-62 -17 0
-62 -20 0
-62 -26 0
-62 -44 0
-62 -56 0
-62 -68 0
-62 -71 0
-62 -74 0
-62 -92 0
-62 -95 0
-62 -101 0
-65 -5 0
-65 -23 0
-65 -35 0
-65 -53 0
-65 -56 0
-65 -71 0
-65 -101 0
-65 -113 0
-65 -116 0
-65 -119 0
-68 -2 0
-68 -14 0
-68 -35 0
-68 -41 0
-68 -53 0
-68 -56 0
-68 -59 0
-68 -62 0
-68 -95 0
-68 -113 0
-71 -5 0
-71 -8 0
-71 -20 0
-71 -32 0
-71 -59 0
-71 -62 0
-71 -65 0
-71 -77 0
-71 -92 0
-71 -113 0
-71 -116 0
-71 -119 0
-74 -5 0
-74 -50 0
-74 -62 0
-74 -83 0
-74 -86 0
-74 -89 0
-74 -98 0
-74 -101 0
-74 -104 0
-74 -110 0
-74 -113 0
-74 -119 0
-77 -2 0
-77 -17 0
-77 -23 0
-77 -29 0
-77 -56 0
-77 -71 0
-77 -80 0
-77 -83 0
-77 -89 0
-77 -92 0
-77 -95 0
-77 -107 0
-77 -113 0
-77 -116 0
-80 -8 0
-80 -11 0
-80 -20 0
-80 -32 0
-80 -41 0
-80 -50 0
-80 -77 0
-80 -83 0
-80 -95 0
-80 -98 0
-80 -101 0
-80 -104 0
-83 -5 0
-83 -26 0
-83 -38 0
-83 -53 0
-83 -59 0
-83 -74 0
-83 -77 0
-83 -80 0
-83 -89 0
-83 -98 0
-83 -101 0
-83 -104 0
-83 -110 0
-86 -20 0
-86 -26 0
-86 -38 0
-86 -41 0
-86 -44 0
-86 -47 0
-86 -53 0
-86 -59 0
-86 -74 0
-86 -89 0
-86 -92 0
-86 -98 0
-86 -104 0
-89 -5 0
-89 -8 0
-89 -11 0
-89 -23 0
-89 -26 0
-89 -32 0
-89 -50 0
-89 -74 0
-89 -77 0
-89 -83 0
-89 -86 0
-92 -2 0
-92 -14 0
-92 -35 0
-92 -44 0
-92 -47 0
-92 -59 0
-92 -62 0
-92 -71 0
-92 -77 0
-92 -86 0
-92 -98 0
-92 -107 0
-92 -113 0
-92 -116 0
-95 -17 0
-95 -23 0
-95 -38 0
-95 -56 0
-95 -62 0
-95 -68 0
-95 -77 0
-95 -80 0
-95 -101 0
-95 -113 0
-95 -116 0
-95 -119 0
-98 -8 0
-98 -17 0
-98 -20 0
-98 -23 0
-98 -26 0
-98 -32 0
-98 -47 0
-98 -53 0
-98 -56 0
-98 -74 0
-98 -80 0
-98 -83 0
-98 -86 0
-98 -92 0
-98 -104 0
-101 -2 0
-101 -17 0
-101 -38 0
-101 -47 0
-101 -62 0
-101 -65 0
-101 -74 0
-101 -80 0
-101 -83 0
-101 -95 0
-101 -116 0
-104 -11 0
-104 -17 0
-104 -29 0
-104 -32 0
-104 -41 0
-104 -47 0
-104 -53 0
-104 -56 0
-104 -74 0
-104 -80 0
-104 -83 0
-104 -86 0
-104 -98 0
-107 -14 0
-107 -17 0
-107 -20 0
-107 -23 0
-107 -26 0
-107 -29 0
-107 -35 0
-107 -44 0
-107 -56 0
-107 -59 0
-107 -77 0
-107 -92 0
-107 -110 0
-110 -8 0
-110 -11 0
-110 -41 0
-110 -47 0
-110 -74 0
-110 -83 0
-110 -107 0
-110 -116 0
-113 -5 0
-113 -8 0
-113 -11 0
-113 -20 0
-113 -35 0
-113 -44 0
-113 -65 0
-113 -68 0
-113 -71 0
-113 -74 0
-113 -77 0
-113 -92 0
-113 -95 0
-116 -5 0
-116 -17 0
-116 -41 0
-116 -65 0
-116 -71 0
-116 -77 0
-116 -92 0
-116 -95 0
-116 -101 0
-116 -110 0
-119 -2 0
-119 -17 0
-119 -29 0
-119 -38 0
-119 -44 0
-119 -47 0
-119 -56 0
-119 -65 0
-119 -71 0
-119 -74 0
-119 -95 0
-3 -9 0
-3 -18 0
-3 -21 0
-3 -33 0
-3 -36 0
-3 -42 0
-3 -54 0
-3 -60 0
-3 -69 0
-3 -78 0
-3 -93 0
-3 -102 0
-3 -120 0
-6 -21 0
-6 -27 0
-6 -30 0
-6 -33 0
-6 -39 0
-6 -45 0
-6 -66 0
-6 -72 0
-6 -75 0
-6 -84 0
-6 -90 0
-6 -114 0
-6 -117 0
-9 -3 0
-9 -24 0
-9 -36 0
-9 -45 0
-9 -48 0
-9 -54 0
-9 -57 0
-9 -72 0
-9 -81 0
-9 -90 0
-9 -99 0
-9 -111 0
-9 -114 0
-12 -21 0
-12 -33 0
-12 -36 0
-12 -39 0
-12 -42 0
-12 -45 0
-12 -51 0
-12 -54 0
-12 -63 0
-12 -81 0
-12 -90 0
-12 -105 0
-12 -111 0
-12 -114 0
-15 -18 0
-15 -27 0
-15 -36 0
-15 -39 0
-15 -45 0
-15 -51 0
-15 -63 0
-15 -69 0
-15 -93 0
-15 -108 0
-18 -3 0
-18 -15 0
-18 -21 0
-18 -36 0
-18 -42 0
-18 -51 0
-18 -63 0
-18 -78 0
-18 -96 0
-18 -99 0
-18 -102 0
-18 -105 0
-18 -108 0
-18 -117 0
-18 -120 0
-21 -3 0
-21 -6 0
-21 -12 0
-21 -18 0
-21 -27 0
-21 -45 0
-21 -54 0
-21 -63 0
-21 -72 0
-21 -81 0
-21 -87 0
-21 -99 0
-21 -108 0
-21 -114 0
-24 -9 0
-24 -27 0
-24 -36 0
-24 -39 0
-24 -48 0
-24 -54 0
-24 -60 0
-24 -66 0
-24 -78 0
-24 -90 0
-24 -96 0
-24 -99 0
-24 -108 0
-27 -6 0
-27 -15 0
-27 -21 0
-27 -24 0
-27 -30 0
-27 -39 0
-27 -63 0
-27 -84 0
-27 -87 0
-27 -90 0
-27 -99 0
-27 -108 0
-30 -6 0
-30 -27 0
-30 -33 0
-30 -36 0
-30 -42 0
-30 -51 0
-30 -78 0
-30 -105 0
-30 -108 0
-30 -120 0
-33 -3 0
-33 -6 0
-33 -12 0
-33 -30 0
-33 -45 0
-33 -48 0
-33 -72 0
-33 -81 0
-33 -90 0
-33 -99 0
-33 -105 0
-36 -3 0
-36 -9 0
-36 -12 0
-36 -15 0
-36 -18 0
-36 -24 0
-36 -30 0
-36 -42 0
-36 -66 0
-36 -69 0
-36 -93 0
-36 -108 0
-36 -114 0
-39 -6 0
-39 -12 0
-39 -15 0
-39 -24 0
-39 -27 0
-39 -54 0
-39 -60 0
-39 -84 0
-39 -87 0
-39 -96 0
-39 -102 0
-39 -120 0
-42 -3 0
-42 -12 0
-42 -18 0
-42 -30 0
-42 -36 0
-42 -45 0
-42 -60 0
-42 -69 0
-42 -81 0
-42 -87 0
-42 -105 0
-42 -111 0
-42 -117 0
-45 -6 0
-45 -9 0
-45 -12 0
-45 -15 0
-45 -21 0
-45 -33 0
-45 -42 0
-45 -63 0
-45 -87 0
-45 -93 0
-45 -108 0
-45 -114 0
-45 -120 0
-48 -9 0
-48 -24 0
-48 -33 0
-48 -51 0
-48 -54 0
-48 -60 0
-48 -87 0
-48 -93 0
-48 -99 0
-48 -102 0
-48 -105 0
-48 -111 0
-48 -120 0
-51 -12 0
-51 -15 0
-51 -18 0
-51 -30 0
-51 -48 0
-51 -54 0
-51 -57 0
-51 -60 0
-51 -75 0
-51 -81 0
-51 -90 0
-54 -3 0
-54 -9 0
-54 -12 0
-54 -21 0
-54 -24 0
-54 -39 0
-54 -48 0
-54 -51 0
-54 -66 0
-54 -69 0
-54 -84 0
-54 -87 0
-54 -99 0
-54 -105 0
-57 -9 0
-57 -51 0
-57 -63 0
-57 -66 0
-57 -69 0
-57 -78 0
-57 -96 0
-57 -99 0
-57 -105 0
-57 -108 0
-57 -120 0
-60 -3 0
-60 -24 0
-60 -39 0
-60 -42 0
-60 -48 0
-60 -51 0
-60 -69 0
-60 -72 0
-60 -84 0
-60 -87 0
-60 -93 0
-60 -108 0
-63 -12 0
-63 -15 0
-63 -18 0
-63 -21 0
-63 -27 0
-63 -45 0
-63 -57 0
-63 -69 0
-63 -72 0
-63 -75 0
-63 -93 0
-63 -96 0
-63 -102 0
-66 -6 0
-66 -24 0
-66 -36 0
-66 -54 0
-66 -57 0
-66 -72 0
-66 -102 0
-66 -114 0
-66 -117 0
-66 -120 0
-69 -3 0
-69 -15 0
-69 -36 0
-69 -42 0
-69 -54 0
-69 -57 0
-69 -60 0
-69 -63 0
-69 -96 0
-69 -114 0
-72 -6 0
-72 -9 0
-72 -21 0
-72 -33 0
-72 -60 0
-72 -63 0
-72 -66 0
-72 -78 0
-72 -93 0
-72 -114 0
-72 -117 0
-72 -120 0
-75 -6 0
-75 -51 0
-75 -63 0
-75 -84 0
-75 -87 0
-75 -90 0
-75 -99 0
-75 -102 0
-75 -105 0
-75 -111 0
-75 -114 0
-75 -120 0
-78 -3 0
-78 -18 0
-78 -24 0
-78 -30 0
-78 -57 0
-78 -72 0
-78 -81 0
-78 -84 0
-78 -90 0
-78 -93 0
-78 -96 0
-78 -108 0
-78 -114 0
-78 -117 0
-81 -9 0
-81 -12 0
-81 -21 0
-81 -33 0
-81 -42 0
-81 -51 0
-81 -78 0
-81 -84 0
-81 -96 0
-81 -99 0
-81 -102 0
-81 -105 0
-84 -6 0
-84 -27 0
-84 -39 0
-84 -54 0
-84 -60 0
-84 -75 0
-84 -78 0
-84 -81 0
-84 -90 0
-84 -99 0
-84 -102 0
-84 -105 0
-84 -111 0
-87 -21 0
-87 -27 0
-87 -39 0
-87 -42 0
-87 -45 0
-87 -48 0
-87 -54 0
-87 -60 0
-87 -75 0
-87 -90 0
-87 -93 0
-87 -99 0
-87 -105 0
-90 -6 0
-90 -9 0
-90 -12 0
-90 -24 0
-90 -27 0
-90 -33 0
-90 -51 0
-90 -75 0
-90 -78 0
-90 -84 0
-90 -87 0
-93 -3 0
-93 -15 0
-93 -36 0
-93 -45 0
-93 -48 0
-93 -60 0
-93 -63 0
-93 -72 0
-93 -78 0
-93 -87 0
-93 -99 0
-93 -108 0
-93 -114 0
-93 -117 0
-96 -18 0
-96 -24 0
-96 -39 0
-96 -57 0
-96 -63 0
-96 -69 0
-96 -78 0
-96 -81 0
-96 -102 0
-96 -114 0
-96 -117 0
-96 -120 0
-99 -9 0
-99 -18 0
-99 -21 0
-99 -24 0
-99 -27 0
-99 -33 0
-99 -48 0
-99 -54 0
-99 -57 0
-99 -75 0
-99 -81 0
-99 -84 0
-99 -87 0
-99 -93 0
-99 -105 0
-102 -3 0
-102 -18 0
-102 -39 0
-102 -48 0
-102 -63 0
-102 -66 0
-102 -75 0
-102 -81 0
-102 -84 0
-102 -96 0
-102 -117 0
-105 -12 0
-105 -18 0
-105 -30 0
-105 -33 0
-105 -42 0
-105 -48 0
-105 -54 0
-105 -57 0
-105 -75 0
-105 -81 0
-105 -84 0
-105 -87 0
-105 -99 0
-108 -15 0
-108 -18 0
-108 -21 0
-108 -24 0
-108 -27 0
-108 -30 0
-108 -36 0
-108 -45 0
-108 -57 0
-108 -60 0
-108 -78 0
-108 -93 0
-108 -111 0
-111 -9 0
-111 -12 0
-111 -42 0
-111 -48 0
-111 -75 0
-111 -84 0
-111 -108 0
-111 -117 0
-114 -6 0
-114 -9 0
-114 -12 0
-114 -21 0
-114 -36 0
-114 -45 0
-114 -66 0
-114 -69 0
-114 -72 0
-114 -75 0
-114 -78 0
-114 -93 0
-114 -96 0
-117 -6 0
-117 -18 0
-117 -42 0
-117 -66 0
-117 -72 0
-117 -78 0
-117 -93 0
-117 -96 0
-117 -102 0
-117 -111 0
-120 -3 0
-120 -18 0
-120 -30 0
-120 -39 0
-120 -45 0
-120 -48 0
-120 -57 0
-120 -66 0
-120 -72 0
-120 -75 0
-120 -96 0
